instances/in_50_25_8_4.dzn
n = 50;
k = 25;
h = 8;
tiles = array2d(1..n, 1..2,
[ 6,13
, 22,4
, 11,18
, 22,11
, 7,14
, 1,1
, 18,20
, 4,11
, 19,23
, 8,8
, 7,16
, 16,15
, 6,11
, 11,5
, 9,2
, 11,14
, 9,6
, 21,19
, 3,4
, 23,22
, 8,22
, 19,10
, 10,16
, 9,4
, 12,21
, 12,15
, 23,21
, 10,22
, 18,17
, 1,7
, 19,12
, 4,17
, 2,12
, 9,13
, 20,2
, 9,22
, 15,5
, 4,14
, 18,23
, 15,9
, 25,10
, 17,4
, 24,2
, 25,19
, 18,6
, 11,24
, 20,25
, 13,7
, 16,12
, 12,15
]);