instances/in_50_25_8_4.lp
#const n = 50.
#const k = 25.
#const h = 8.
tile(1,6,13).
tile(2,22,4).
tile(3,11,18).
tile(4,22,11).
tile(5,7,14).
tile(6,1,1).
tile(7,18,20).
tile(8,4,11).
tile(9,19,23).
tile(10,8,8).
tile(11,7,16).
tile(12,16,15).
tile(13,6,11).
tile(14,11,5).
tile(15,9,2).
tile(16,11,14).
tile(17,9,6).
tile(18,21,19).
tile(19,3,4).
tile(20,23,22).
tile(21,8,22).
tile(22,19,10).
tile(23,10,16).
tile(24,9,4).
tile(25,12,21).
tile(26,12,15).
tile(27,23,21).
tile(28,10,22).
tile(29,18,17).
tile(30,1,7).
tile(31,19,12).
tile(32,4,17).
tile(33,2,12).
tile(34,9,13).
tile(35,20,2).
tile(36,9,22).
tile(37,15,5).
tile(38,4,14).
tile(39,18,23).
tile(40,15,9).
tile(41,25,10).
tile(42,17,4).
tile(43,24,2).
tile(44,25,19).
tile(45,18,6).
tile(46,11,24).
tile(47,20,25).
tile(48,13,7).
tile(49,16,12).
tile(50,12,15).
